1390
1   1   100  27   0 13 21 29 37 5 0
1   2   170  54   0 3 11 19 27 35 34 26 18 10 2 0
1   3   170  54   0 1 9 17 25 33 36 28 20 12 4 0
1   4   195  58   0 8 16 24 32 40 75 67 74 39 31 23 15 7 0
1   5   174  30   0 6 14 22 30 38 73 65 0
2   1   128  51   0 44 52 60 68 76 57 49 41 0
2   2   170  54   0 47 55 63 71 79 78 70 62 54 46 0
2   3   170  54   0 45 53 61 69 77 80 72 64 56 48 0
2   4   113  50   0 42 50 58 66 59 51 43 0
2   5   0    0    0 0